
  32    1
  10

   0   0  14 2 3 4 5 6 7 8 9 10 11 12 14 18 19 
   5   1   6 30 22 21 16 15 13 
   3   1   5 30 28 21 15 13 
   3   2   6 27 22 21 20 16 15 
   5   1   6 29 28 25 22 21 17 
   5   2   6 29 26 25 24 22 21 
   5   2   6 31 29 28 26 25 20 
   3   1   4 26 22 20 16 
   4   2   5 27 26 25 24 20 
   2   4   5 27 25 24 21 20 
   1   2   4 26 24 21 20 
   2   1   4 27 26 25 24 
   9   3   3 27 24 20 
   1   1   3 27 24 22 
   8   1   3 26 25 23 
   1   2   3 25 24 23 
   7   1   2 24 20 
   6   4   2 27 25 
   1   1   2 25 24 
   4   1   1 23 
   7   4   1 23 
   8   1   1 23 
   9   2   1 32
   9   2   1 32
   1   1   1 32
   7   3   1 32
   3   3   1 32
   7   1   1 32
   5   4   1 32
   1   2   1 32
  10   4   1 32
   0   0   0 
